
  22   10
  10   10   10   10   10   10   10   10   10   10

   0   0   0   0   0   0   0   0   0   0   0   2 2 21 
   7  10  10  10  10  10  10  10  10  10  10   1 3 
   4  10  10  10  10  10  10  10  10  10  10   2 8 4 
   2  10  10  10  10  10  10  10  10  10  10   1 5 
   9  10  10  10  10  10  10  10  10  10  10   2 13 6 
  10  10  10  10  10  10  10  10  10  10  10   4 19 18 10 7 
   5  10  10  10  10  10  10  10  10  10  10   1 9 
   2  10  10  10  10  10  10  10  10  10  10   5 19 18 16 15 12 
   1  10  10  10  10  10  10  10  10  10  10   2 17 11 
   2  10  10  10  10  10  10  10  10  10  10   2 17 11 
  10  10  10  10  10  10  10  10  10  10  10   3 16 15 12 
   4  10  10  10  10  10  10  10  10  10  10   1 14 
   8  10  10  10  10  10  10  10  10  10  10   1 20 
   8  10  10  10  10  10  10  10  10  10  10   1 22
   1  10  10  10  10  10  10  10  10  10  10   1 22
   3  10  10  10  10  10  10  10  10  10  10   1 22
   6  10  10  10  10  10  10  10  10  10  10   1 22
   7  10  10  10  10  10  10  10  10  10  10   1 22
   5  10  10  10  10  10  10  10  10  10  10   1 22
   4  10  10  10  10  10  10  10  10  10  10   1 22
   6  10  10  10  10  10  10  10  10  10  10   1 22
   0   0   0   0   0   0   0   0   0   0   0   0 
